<instance format="XCSP3" type="CSP">
  <constraints>
    <minimum id="c1">
       <list> x1 x2 x3 x4 </list>
       <condition> (eq,y) </condition>
    </minimum>
    <minimum id="c2">
       <list> z1 z2 z3 z4 z5 </list>
       <condition> (ne,w) </condition>
    </minimum>
  </constraints>
</instance>
